\ Model Q1
\ LP format - for model browsing. Use MPS format to capture full model detail.
Maximize
  250 wiring + 150 testing
Subject To
 R0: 2 wiring + 3 testing <= 260
 R1: wiring + 2 testing <= 140
 R2: wiring >= 20
 R3: testing >= 20
Bounds
End
